g3 4 1 0	# problem srcpm
 38 19 1 0 1	# vars, constraints, objectives, ranges, eqns
 0 1	# nonlinear constraints, objectives
 0 0	# network constraints: nonlinear, linear
 0 5 0	# nonlinear vars in constraints, objectives, both
 0 0 0 1	# linear network variables; functions; arith, flags
 0 0 0 0 0	# discrete variables: binary, integer, nonlinear (b,c,o)
 140 6	# nonzeros in Jacobian, gradients
 0 0	# max name lengths: constraints, variables
 0 0 0 0 0	# common exprs: b,c,o,c1,o1
b
2 2
2 2
2 2
2 2
2 2
0 0 3.4
2 0
2 0
2 0
2 0
2 0
2 0
2 0
2 0
2 0
2 0
2 0
2 0
0 0 7.1
0 0 0.8
2 0
2 0
2 0
0 0 2.5
0 0 2.7
0 0 0.3
0 0 13.6
0 0 1.1
0 0 1
0 0 16.2
0 0 8.9
0 0 4.4
0 0 3.1
0 0 1.7
0 0 1.9
2 0
2 0
3
x31
0 12.8
1 13.8
2 8.3
3 4.2
4 8.6
5 3.1
6 13.6
8 1.1
10 1
12 16.4244058299284
14 8.9
16 4.4
18 7.1
19 0.8
20 5.56103683518173
21 0.312071787775987
22 1.73896316481828
23 2.5
24 2.7
26 13.6
27 1.1
28 1
29 15.7244058299284
30 8.9
31 4.4
32 3.1
33 0.928008053710258
34 0.268195340806014
35 2.78989137704229
36 6.47831105055452
37 1560.6691675193
r
2 0
2 0
2 0
2 -0.7
2 0
2 0
2 0
2 0
2 0
2 0
2 -0.5
2 0
2 0
2 -0.1
1 7.5
1 7.3
1 2.9
1 3.9
4 0
C0
n0
C1
n0
C2
n0
C3
n0
C4
n0
C5
n0
C6
n0
C7
n0
C8
n0
C9
n0
C10
n0
C11
n0
C12
n0
C13
n0
C14
n0
C15
n0
C16
n0
C17
n0
C18
n0
O0 0
o54
5
o2
n3865470.56640001
o5
v0
n-4
o2
n5130022.82472
o5
v1
n-4
o2
n423446.8691225
o5
v2
n-4
o2
n1808.40439881057
o5
v3
n-2.33333333333333
o2
n17313.2956782741
o5
v4
n-2.33333333333333
k37
1
2
3
4
5
8
13
19
24
30
35
41
46
52
57
63
68
74
77
80
88
95
103
110
113
116
118
120
122
124
126
128
130
133
135
137
139
J0 3
6 -1
7 -1
26 1
J1 3
8 -1
9 -1
27 1
J2 3
10 -1
11 -1
28 1
J3 3
12 -1
13 -1
29 1
J4 3
14 -1
15 -1
30 1
J5 3
16 -1
17 -1
31 1
J6 2
5 -1
32 1
J7 11
6 0.35
7 0.34
8 0.5
9 0.49
10 0.68
11 0.67
20 -1
21 -1
24 0.99
25 0.99
35 -1
J8 11
12 0.38
13 0.38
14 0.48
15 0.47
16 0.66
17 0.65
22 -1
23 -1
24 -1
25 -1
36 -1
J9 9
0 -1
5 0.2
18 0.96
19 0.96
20 0.67
21 0.36
22 0.61
23 0.25
33 -1
J10 19
1 -1
6 0.28
7 0.28
8 0.25
9 0.25
10 0.2
11 0.2
12 0.26
13 0.26
14 0.23
15 0.23
16 0.18
17 0.18
20 0.07
21 0.18
22 0.02
23 0.1
33 1
34 0.93
J11 21
2 -1
5 0.8
6 0.35
7 0.35
8 0.23
9 0.23
10 0.1
11 0.1
12 0.33
13 0.33
14 0.27
15 0.27
16 0.14
17 0.14
18 -1
19 -1
20 0.04
21 0.03
22 0.06
23 0.04
34 -1
J12 4
3 -1
20 0.23
21 0.42
35 1
J13 4
4 -1
22 0.3
23 0.6
36 1
J14 6
7 1
9 1
11 1
13 1
15 1
17 1
J15 2
20 1
22 1
J16 2
21 1
23 1
J17 2
20 -0.83
22 1
J18 29
6 -0.45
7 -0.5
8 -0.45
9 -0.5
10 -0.45
11 -0.5
12 -0.5
13 -0.55
14 -0.5
15 -0.55
16 -0.5
17 -0.55
18 -0.41
19 -0.5
20 -0.27
21 -0.45
22 -0.32
23 -0.28
24 -0.9
25 -1
26 -32
27 -32
28 -32
29 -32
30 -32
31 -32
32 -32
33 0.3
37 1
G0 6
0 0
1 0
2 0
3 0
4 0
37 1
